c "256840.clq"
p edge 100 1344
e 1 17
e 1 18
e 1 19
e 1 21
e 1 22
e 1 23
e 1 24
e 1 25
e 1 27
e 1 28
e 1 29
e 1 30
e 1 34
e 1 37
e 1 39
e 1 41
e 1 42
e 1 45
e 1 46
e 1 47
e 1 52
e 1 53
e 1 56
e 1 58
e 1 62
e 1 70
e 1 75
e 1 80
e 1 82
e 1 83
e 1 86
e 1 89
e 1 92
e 1 99
e 2 17
e 2 18
e 2 19
e 2 20
e 2 21
e 2 22
e 2 23
e 2 24
e 2 25
e 2 26
e 2 28
e 2 29
e 2 30
e 2 33
e 2 39
e 2 48
e 2 57
e 2 65
e 2 67
e 2 68
e 2 70
e 2 80
e 2 89
e 2 95
e 3 17
e 3 18
e 3 19
e 3 24
e 3 25
e 3 28
e 3 31
e 3 35
e 3 37
e 3 43
e 3 46
e 3 49
e 3 55
e 3 56
e 3 57
e 3 60
e 3 62
e 3 65
e 3 74
e 3 81
e 3 86
e 3 89
e 3 94
e 3 97
e 4 17
e 4 18
e 4 19
e 4 20
e 4 21
e 4 22
e 4 23
e 4 26
e 4 27
e 4 30
e 4 31
e 4 32
e 4 33
e 4 37
e 4 39
e 4 41
e 4 42
e 4 45
e 4 47
e 4 53
e 4 54
e 4 56
e 4 58
e 4 66
e 4 68
e 4 70
e 4 73
e 4 75
e 4 82
e 4 84
e 4 87
e 4 91
e 4 92
e 4 99
e 4 100
e 5 17
e 5 18
e 5 19
e 5 20
e 5 21
e 5 22
e 5 26
e 5 29
e 5 33
e 5 43
e 5 44
e 5 51
e 5 52
e 5 58
e 5 66
e 5 70
e 5 78
e 5 80
e 5 81
e 5 98
e 6 17
e 6 18
e 6 19
e 6 20
e 6 21
e 6 22
e 6 23
e 6 24
e 6 25
e 6 27
e 6 29
e 6 30
e 6 31
e 6 33
e 6 35
e 6 39
e 6 42
e 6 44
e 6 46
e 6 52
e 6 56
e 6 57
e 6 60
e 6 65
e 6 73
e 6 77
e 6 82
e 6 87
e 6 89
e 6 92
e 6 94
e 6 97
e 7 17
e 7 18
e 7 19
e 7 20
e 7 21
e 7 22
e 7 23
e 7 24
e 7 25
e 7 30
e 7 32
e 7 35
e 7 37
e 7 43
e 7 44
e 7 45
e 7 46
e 7 51
e 7 58
e 7 62
e 7 66
e 7 68
e 7 69
e 7 72
e 7 77
e 7 80
e 7 84
e 7 88
e 7 98
e 8 17
e 8 18
e 8 19
e 8 20
e 8 21
e 8 23
e 8 26
e 8 28
e 8 29
e 8 31
e 8 33
e 8 34
e 8 35
e 8 36
e 8 38
e 8 39
e 8 50
e 8 57
e 8 58
e 8 63
e 8 64
e 8 67
e 8 68
e 8 79
e 8 80
e 8 83
e 8 94
e 9 17
e 9 18
e 9 20
e 9 21
e 9 22
e 9 25
e 9 30
e 9 32
e 9 33
e 9 34
e 9 37
e 9 38
e 9 43
e 9 55
e 9 56
e 9 59
e 9 63
e 9 81
e 9 90
e 9 91
e 9 92
e 10 17
e 10 18
e 10 20
e 10 22
e 10 23
e 10 24
e 10 26
e 10 27
e 10 28
e 10 29
e 10 31
e 10 37
e 10 42
e 10 43
e 10 49
e 10 56
e 10 67
e 10 78
e 10 86
e 10 88
e 10 89
e 10 90
e 10 94
e 10 97
e 10 100
e 11 17
e 11 19
e 11 20
e 11 25
e 11 33
e 11 40
e 11 42
e 11 44
e 11 48
e 11 72
e 12 17
e 12 18
e 12 19
e 12 52
e 12 59
e 12 66
e 13 17
e 13 18
e 13 19
e 13 20
e 13 21
e 13 22
e 13 23
e 13 24
e 13 26
e 13 27
e 13 31
e 13 33
e 13 34
e 13 35
e 13 41
e 13 44
e 13 45
e 13 46
e 13 47
e 13 50
e 13 51
e 13 55
e 13 62
e 13 63
e 13 65
e 13 66
e 13 69
e 13 72
e 13 77
e 13 82
e 13 87
e 13 98
e 13 100
e 14 17
e 14 18
e 14 19
e 14 20
e 14 21
e 14 22
e 14 23
e 14 24
e 14 27
e 14 28
e 14 31
e 14 32
e 14 33
e 14 36
e 14 39
e 14 41
e 14 42
e 14 44
e 14 50
e 14 51
e 14 57
e 14 64
e 14 71
e 14 72
e 14 74
e 14 84
e 15 17
e 15 18
e 15 19
e 15 20
e 15 21
e 15 22
e 15 23
e 15 24
e 15 27
e 15 29
e 15 30
e 15 35
e 15 40
e 15 48
e 15 49
e 15 52
e 15 54
e 15 61
e 15 66
e 15 69
e 15 75
e 15 77
e 15 90
e 15 96
e 15 98
e 16 17
e 16 18
e 16 19
e 16 20
e 16 21
e 16 25
e 16 26
e 16 28
e 16 32
e 16 36
e 16 37
e 16 40
e 16 41
e 16 53
e 16 72
e 16 74
e 16 75
e 16 78
e 16 93
e 17 18
e 17 19
e 17 20
e 17 21
e 17 22
e 17 23
e 17 24
e 17 25
e 17 26
e 17 27
e 17 28
e 17 30
e 17 31
e 17 32
e 17 33
e 17 34
e 17 35
e 17 36
e 17 37
e 17 38
e 17 39
e 17 40
e 17 41
e 17 45
e 17 47
e 17 49
e 17 50
e 17 53
e 17 55
e 17 56
e 17 57
e 17 58
e 17 59
e 17 60
e 17 61
e 17 63
e 17 64
e 17 67
e 17 71
e 17 77
e 17 80
e 17 93
e 18 19
e 18 20
e 18 21
e 18 22
e 18 23
e 18 24
e 18 25
e 18 26
e 18 27
e 18 28
e 18 29
e 18 30
e 18 31
e 18 33
e 18 34
e 18 35
e 18 36
e 18 37
e 18 39
e 18 40
e 18 41
e 18 42
e 18 43
e 18 44
e 18 46
e 18 48
e 18 49
e 18 50
e 18 51
e 18 53
e 18 54
e 18 55
e 18 56
e 18 57
e 18 58
e 18 60
e 18 61
e 18 64
e 18 65
e 18 66
e 18 68
e 18 69
e 18 73
e 18 74
e 18 76
e 18 77
e 18 78
e 18 81
e 18 83
e 18 85
e 18 88
e 18 90
e 18 94
e 18 95
e 18 97
e 19 20
e 19 21
e 19 22
e 19 23
e 19 24
e 19 25
e 19 26
e 19 27
e 19 28
e 19 29
e 19 31
e 19 32
e 19 34
e 19 37
e 19 38
e 19 39
e 19 41
e 19 46
e 19 47
e 19 49
e 19 50
e 19 51
e 19 52
e 19 54
e 19 60
e 19 62
e 19 63
e 19 66
e 19 67
e 19 69
e 19 70
e 19 73
e 19 76
e 19 79
e 19 80
e 19 81
e 19 85
e 19 87
e 19 94
e 19 95
e 19 100
e 20 21
e 20 22
e 20 23
e 20 24
e 20 25
e 20 26
e 20 27
e 20 29
e 20 30
e 20 32
e 20 33
e 20 34
e 20 35
e 20 36
e 20 38
e 20 40
e 20 41
e 20 42
e 20 43
e 20 45
e 20 46
e 20 49
e 20 51
e 20 55
e 20 59
e 20 60
e 20 76
e 20 81
e 20 91
e 20 97
e 21 22
e 21 23
e 21 24
e 21 25
e 21 26
e 21 27
e 21 28
e 21 29
e 21 33
e 21 34
e 21 35
e 21 36
e 21 37
e 21 38
e 21 39
e 21 42
e 21 43
e 21 44
e 21 45
e 21 46
e 21 48
e 21 49
e 21 50
e 21 51
e 21 57
e 21 58
e 21 59
e 21 60
e 21 62
e 21 64
e 21 68
e 21 71
e 21 73
e 21 75
e 21 78
e 21 79
e 21 82
e 21 85
e 21 86
e 21 87
e 21 91
e 21 94
e 21 97
e 21 98
e 22 23
e 22 24
e 22 25
e 22 26
e 22 27
e 22 28
e 22 29
e 22 30
e 22 31
e 22 34
e 22 36
e 22 37
e 22 38
e 22 40
e 22 42
e 22 43
e 22 45
e 22 46
e 22 48
e 22 52
e 22 54
e 22 56
e 22 57
e 22 60
e 22 62
e 22 64
e 22 68
e 22 71
e 22 74
e 22 75
e 22 77
e 22 78
e 22 79
e 22 86
e 22 90
e 22 91
e 22 93
e 22 97
e 23 24
e 23 25
e 23 26
e 23 27
e 23 28
e 23 29
e 23 30
e 23 31
e 23 32
e 23 33
e 23 35
e 23 36
e 23 40
e 23 41
e 23 42
e 23 43
e 23 46
e 23 47
e 23 50
e 23 51
e 23 52
e 23 53
e 23 54
e 23 57
e 23 58
e 23 63
e 23 65
e 23 68
e 23 73
e 23 76
e 23 78
e 23 79
e 23 80
e 23 81
e 23 82
e 23 83
e 23 84
e 23 86
e 23 87
e 23 88
e 23 91
e 23 96
e 24 25
e 24 26
e 24 27
e 24 28
e 24 29
e 24 30
e 24 32
e 24 36
e 24 37
e 24 38
e 24 40
e 24 41
e 24 43
e 24 44
e 24 45
e 24 49
e 24 50
e 24 52
e 24 53
e 24 58
e 24 63
e 24 64
e 24 65
e 24 66
e 24 67
e 24 68
e 24 72
e 24 77
e 24 79
e 24 82
e 24 84
e 24 85
e 24 88
e 24 91
e 24 93
e 24 98
e 24 99
e 24 100
e 25 26
e 25 28
e 25 30
e 25 31
e 25 32
e 25 35
e 25 36
e 25 38
e 25 39
e 25 41
e 25 42
e 25 46
e 25 47
e 25 52
e 25 53
e 25 54
e 25 56
e 25 59
e 25 69
e 25 70
e 25 73
e 25 74
e 25 76
e 25 78
e 25 81
e 25 82
e 25 83
e 25 89
e 25 93
e 25 98
e 26 27
e 26 29
e 26 32
e 26 34
e 26 35
e 26 44
e 26 47
e 26 52
e 26 54
e 26 55
e 26 60
e 26 61
e 26 62
e 26 63
e 26 69
e 26 70
e 26 71
e 26 72
e 26 73
e 26 76
e 26 91
e 26 93
e 27 28
e 27 29
e 27 31
e 27 33
e 27 34
e 27 37
e 27 47
e 27 48
e 27 49
e 27 57
e 27 59
e 27 61
e 27 74
e 27 75
e 27 87
e 27 96
e 27 100
e 28 30
e 28 32
e 28 34
e 28 38
e 28 39
e 28 43
e 28 50
e 28 52
e 28 54
e 28 59
e 28 62
e 28 64
e 28 70
e 28 71
e 28 72
e 28 74
e 28 80
e 28 81
e 28 85
e 28 86
e 28 87
e 28 88
e 28 92
e 28 95
e 28 96
e 28 97
e 29 30
e 29 31
e 29 32
e 29 34
e 29 36
e 29 38
e 29 41
e 29 45
e 29 47
e 29 48
e 29 52
e 29 53
e 29 55
e 29 58
e 29 59
e 29 60
e 29 66
e 29 68
e 29 76
e 29 77
e 29 83
e 29 85
e 29 87
e 30 31
e 30 32
e 30 34
e 30 35
e 30 36
e 30 38
e 30 39
e 30 44
e 30 47
e 30 53
e 30 55
e 30 60
e 30 61
e 30 63
e 30 69
e 30 71
e 30 72
e 30 76
e 30 77
e 30 79
e 30 82
e 30 88
e 30 89
e 30 90
e 30 91
e 30 92
e 30 97
e 31 32
e 31 34
e 31 37
e 31 38
e 31 40
e 31 43
e 31 45
e 31 47
e 31 51
e 31 53
e 31 56
e 31 59
e 31 64
e 31 66
e 31 69
e 31 72
e 31 73
e 31 74
e 31 75
e 31 76
e 31 77
e 31 84
e 31 87
e 31 88
e 31 93
e 31 95
e 32 33
e 32 35
e 32 36
e 32 39
e 32 40
e 32 42
e 32 48
e 32 49
e 32 50
e 32 56
e 32 58
e 32 64
e 32 74
e 32 84
e 32 91
e 32 92
e 32 96
e 32 99
e 33 35
e 33 36
e 33 40
e 33 41
e 33 42
e 33 44
e 33 45
e 33 47
e 33 48
e 33 55
e 33 60
e 33 65
e 33 70
e 33 72
e 33 76
e 33 80
e 33 83
e 33 84
e 33 88
e 33 89
e 33 92
e 33 93
e 33 95
e 33 96
e 33 98
e 34 36
e 34 37
e 34 40
e 34 41
e 34 43
e 34 46
e 34 48
e 34 51
e 34 52
e 34 54
e 34 56
e 34 57
e 34 63
e 34 64
e 34 66
e 34 67
e 34 70
e 34 71
e 34 80
e 34 84
e 34 86
e 34 87
e 34 96
e 35 38
e 35 39
e 35 40
e 35 41
e 35 44
e 35 47
e 35 49
e 35 50
e 35 55
e 35 56
e 35 59
e 35 63
e 35 64
e 35 65
e 35 66
e 35 74
e 35 76
e 35 81
e 35 83
e 35 86
e 35 88
e 35 90
e 35 93
e 35 96
e 36 38
e 36 43
e 36 48
e 36 61
e 36 64
e 36 65
e 36 66
e 36 68
e 36 71
e 36 74
e 36 88
e 36 99
e 37 38
e 37 39
e 37 45
e 37 48
e 37 49
e 37 55
e 37 57
e 37 59
e 37 60
e 37 61
e 37 62
e 37 63
e 37 73
e 37 75
e 37 77
e 37 78
e 37 79
e 37 85
e 37 95
e 37 97
e 38 40
e 38 42
e 38 45
e 38 51
e 38 59
e 38 61
e 38 62
e 38 66
e 38 67
e 38 85
e 38 89
e 38 94
e 39 40
e 39 43
e 39 44
e 39 49
e 39 50
e 39 52
e 39 57
e 39 61
e 39 63
e 39 76
e 39 87
e 39 89
e 39 95
e 40 49
e 40 54
e 40 56
e 40 67
e 40 69
e 40 74
e 40 76
e 40 85
e 40 90
e 40 91
e 40 92
e 41 42
e 41 44
e 41 46
e 41 48
e 41 50
e 41 55
e 41 57
e 41 63
e 41 64
e 41 65
e 41 70
e 41 81
e 41 83
e 41 88
e 41 93
e 41 94
e 41 95
e 41 97
e 41 98
e 42 44
e 42 45
e 42 75
e 42 85
e 42 89
e 42 90
e 42 93
e 42 98
e 42 100
e 43 45
e 43 46
e 43 48
e 43 51
e 43 53
e 43 54
e 43 59
e 43 60
e 43 61
e 43 64
e 43 65
e 43 67
e 43 69
e 43 75
e 43 79
e 43 82
e 43 83
e 43 84
e 43 100
e 44 46
e 44 48
e 44 49
e 44 50
e 44 53
e 44 56
e 44 59
e 44 61
e 44 62
e 44 64
e 44 65
e 44 68
e 44 70
e 44 75
e 44 88
e 44 92
e 44 95
e 44 96
e 45 47
e 45 54
e 45 69
e 45 70
e 45 76
e 45 94
e 46 47
e 46 50
e 46 52
e 46 54
e 46 58
e 46 60
e 46 74
e 46 76
e 46 92
e 46 93
e 46 95
e 46 100
e 47 51
e 47 53
e 47 54
e 47 55
e 47 72
e 47 83
e 47 90
e 47 95
e 47 99
e 47 100
e 48 58
e 48 71
e 48 72
e 48 91
e 49 51
e 49 65
e 49 67
e 49 68
e 49 71
e 49 72
e 49 90
e 49 94
e 49 98
e 50 51
e 50 53
e 50 61
e 50 78
e 50 85
e 50 86
e 50 87
e 50 88
e 50 92
e 50 95
e 51 53
e 51 57
e 51 65
e 51 69
e 51 70
e 51 73
e 51 79
e 51 89
e 51 92
e 51 93
e 51 97
e 52 54
e 52 55
e 52 63
e 52 69
e 52 72
e 52 79
e 52 94
e 52 96
e 52 99
e 53 58
e 53 59
e 53 62
e 53 71
e 53 87
e 53 95
e 53 99
e 54 55
e 54 58
e 54 61
e 54 62
e 54 80
e 54 89
e 54 92
e 54 93
e 54 100
e 55 67
e 55 72
e 55 73
e 55 84
e 55 89
e 55 97
e 55 98
e 56 73
e 56 77
e 56 78
e 56 83
e 56 94
e 57 62
e 57 67
e 57 71
e 57 75
e 57 81
e 57 83
e 57 86
e 57 89
e 57 97
e 58 60
e 58 81
e 58 83
e 58 90
e 58 99
e 59 61
e 59 65
e 59 67
e 59 68
e 59 69
e 59 70
e 59 100
e 60 61
e 60 62
e 60 63
e 60 66
e 60 75
e 60 81
e 60 83
e 60 84
e 60 86
e 60 90
e 60 98
e 60 99
e 61 68
e 61 79
e 61 82
e 61 85
e 61 100
e 62 69
e 62 71
e 62 73
e 62 74
e 62 77
e 62 78
e 62 82
e 62 96
e 62 99
e 63 67
e 63 85
e 63 96
e 64 76
e 65 67
e 65 68
e 65 70
e 65 71
e 65 79
e 65 92
e 65 94
e 65 98
e 66 73
e 66 78
e 67 75
e 67 80
e 67 86
e 67 87
e 67 88
e 67 100
e 68 77
e 68 86
e 68 92
e 69 75
e 69 82
e 69 84
e 69 100
e 70 71
e 70 90
e 71 73
e 71 74
e 71 82
e 71 94
e 71 97
e 72 78
e 72 79
e 72 80
e 72 82
e 72 85
e 72 86
e 72 90
e 72 98
e 73 78
e 73 79
e 73 80
e 73 84
e 73 85
e 73 91
e 74 79
e 74 95
e 74 96
e 75 77
e 75 81
e 75 83
e 75 88
e 75 91
e 75 96
e 76 78
e 76 80
e 76 84
e 76 100
e 77 82
e 77 90
e 78 84
e 78 91
e 79 81
e 79 85
e 80 86
e 81 99
e 82 87
e 82 93
e 82 94
e 84 93
e 85 99
e 87 96
e 87 99
e 88 89
e 89 91
e 92 95
e 92 97
e 92 98
e 93 96
e 93 99
e 95 99
